language Essence 1.3

letting blksize_delta be
        function(1 --> 7, 2 --> 8, 3 --> 7, 4 --> 8, 5 --> 2, 6 --> 2, 7 --> 8, 8 --> 3, 9 --> 2, 10 --> 2, 11 --> 2,
                 12 --> 6, 13 --> 2, 14 --> 4)
letting maxcars be
        function(1 --> 2, 2 --> 3, 3 --> 2, 4 --> 2, 5 --> 2, 6 --> 2, 7 --> 2, 8 --> 2, 9 --> 4, 10 --> 2, 11 --> 2,
                 12 --> 2, 13 --> 3, 14 --> 2)
letting n_cars be 41
letting n_classes be 17
letting n_options be 14
letting quantity be
        function(1 --> 9, 2 --> 2, 3 --> 2, 4 --> 2, 5 --> 2, 6 --> 2, 7 --> 2, 8 --> 2, 9 --> 2, 10 --> 2, 11 --> 2,
                 12 --> 2, 13 --> 2, 14 --> 2, 15 --> 2, 16 --> 2, 17 --> 2)
letting usage be
        relation((1, 14), (2, 1), (2, 4), (2, 10), (3, 3), (3, 5), (4, 5), (4, 7), (4, 10), (4, 13), (5, 4), (5, 9),
                 (6, 1), (6, 3), (6, 9), (6, 12), (7, 1), (7, 2), (7, 10), (8, 9), (9, 11), (10, 5), (10, 10), (11, 7),
                 (11, 9), (11, 10), (12, 4), (12, 7), (12, 8), (12, 12), (13, 3), (13, 7), (14, 6), (14, 8), (14, 9),
                 (14, 11), (15, 3), (16, 3), (16, 4), (16, 6), (16, 10), (16, 11), (17, 2), (17, 8), (17, 11), (17, 12))
$ Visualisation for usage
$  1 14
$  2  1
$  2  4
$  2 10
$  3  3
$  3  5
$  4  5
$  4  7
$  4 10
$  4 13
$  5  4
$  5  9
$  6  1
$  6  3
$  6  9
$  6 12
$  7  1
$  7  2
$  7 10
$  8  9
$  9 11
$ 10  5
$ 10 10
$ 11  7
$ 11  9
$ 11 10
$ 12  4
$ 12  7
$ 12  8
$ 12 12
$ 13  3
$ 13  7
$ 14  6
$ 14  8
$ 14  9
$ 14 11
$ 15  3
$ 16  3
$ 16  4
$ 16  6
$ 16 10
$ 16 11
$ 17  2
$ 17  8
$ 17 11
$ 17 12

